Route #1: 1 13 25 26 14 20 33 40 41 48 56 67 74 78 73 66 55 47 39 38 54 53 65 77 88 89 90 97 91 98 99 92 93 94 100 95 80 70 58 44 45 36 30 35 50 63 76 69 79 85 84 75 68 61 62 57 49 43 34 42 28 27 21 9 2 3 15 10 4 16 29 22 17 5 6 11 23 24 18 12 7 8 19 32 31 37 46 52 64 60 51 59 72 71 81 86 82 83 87 96
Cost 44609
